\ This file was automatically generated by Zimpl
\ set s := {1 to 3};
\ set p := {1 to 8};
\ param T[p] := <1> 6, <2> 5, <3> 9, <4> 7, <5> 10, <6> 4, <7> 6, <8> 3;
\ param R[p] := <1> 0.08, <2> 0.06, <3> 0.07, <4> 0.05, <5> 0.08, <6> 0.09, <7> 0.1, <8> 0.06;
\ param I := 30;
\ param M[s] := <1> 3, <2> 5, <3> 8;
\ param M2 := 17;
\ var X[p] >= 0;
\ maximize lucro :      sum <px> in p : X[px] * R[px];
\ subto c1 :     sum <px> in p : X[px] <= I;
\ subto c2 :      sum <px> in p with px <= 3 : X[px] >= M[1];
\ subto c3 :    M2 >= sum <px> in p with px < 7 and px > 3 : X[px] >= M[2];
\ subto c4 :     sum <px> in p with px >= 7 : X[px] >= M[3];
\ subto c5 :     forall <px> in p :         X[px] <= T[px];
\Problem name: file
Maximize
 lucro:  +0.08 X#1 +0.06 X#2 +0.07 X#3 +0.05 X#4 +0.08 X#5 +0.09 X#6
  +0.1 X#7 +0.06 X#8
Subject to
 c1_1:
  + X#8 + X#7 + X#6 + X#5 + X#4 + X#3
  + X#2 + X#1 <= 30
 c2_1:
  + X#3 + X#2 + X#1 >= 3
 c3_1R:
  + X#6 + X#5 + X#4 <= 17
 c3_1L:
  + X#6 + X#5 + X#4 >= 5
 c4_1:
  + X#8 + X#7 >= 8
 c5_1:
  + X#1 <= 6
 c5_2:
  + X#2 <= 5
 c5_3:
  + X#3 <= 9
 c5_4:
  + X#4 <= 7
 c5_5:
  + X#5 <= 10
 c5_6:
  + X#6 <= 4
 c5_7:
  + X#7 <= 6
 c5_8:
  + X#8 <= 3
Bounds
 0 <= X#1 <= +inf
 0 <= X#2 <= +inf
 0 <= X#3 <= +inf
 0 <= X#4 <= +inf
 0 <= X#5 <= +inf
 0 <= X#6 <= +inf
 0 <= X#7 <= +inf
 0 <= X#8 <= +inf
End
